single_objective/SL-DABL/OP/problems/op/OPLib-master/solutions/ea4op/gen3/fl417-gen3-50.sol
NAME : fl417
TYPE : OP
DIMENSION : 417
COST_LIMIT : 5931
ROUTE_NODES : 159
ROUTE_SCORE : 14186
ROUTE_COST : 5926
NODE_SEQUENCE_SECTION
1
10
19
26
42
58
65
69
89
93
224
246
222
244
220
242
218
240
216
238
214
236
212
234
210
232
208
230
206
228
204
226
202
368
367
366
365
364
383
382
363
381
362
361
360
380
359
388
401
402
389
390
403
404
405
406
407
408
391
392
393
203
227
205
229
207
231
209
233
211
235
213
237
215
239
217
241
219
243
221
245
223
247
225
249
248
369
370
384
394
410
411
395
396
412
413
414
385
374
386
415
416
417
397
387
375
376
377
399
378
379
251
275
253
277
255
279
257
281
259
283
261
285
263
287
265
289
267
291
269
293
271
295
297
273
296
272
294
270
292
268
290
266
288
264
286
262
284
260
282
258
280
256
278
254
276
252
274
250
-1
DEPOT_SECTION
1
-1
EOF
